(set-logic QF_LRA)
(declare-fun T1 () Real )
(declare-fun T2 () Real )
(declare-fun T3 () Real )
(declare-fun T4 () Real )
(declare-fun T5 () Real )
(declare-fun T6 () Real )
(declare-fun T7 () Real )
(declare-fun T8 () Real )
(declare-fun Z () Real )
(declare-fun k () Real )
(assert (let
(( $goal (>= Z k) ))
(let
((
$phi ( and 
(or ( <= ( + T1 61 ) T2 ) ( <= ( + T2 27 ) T1 ) )
(or ( <= ( + T1 85 )  ( + T2 27 ) ) ( <= ( + T2 48 )( + T1 61 ) ) )
(or ( <= ( + T1 100 )  ( + T2 48 ) ) ( <= ( + T2 90 )( + T1 85 ) ) )
(or ( <= ( + T1 191 )  ( + T2 90 ) ) ( <= ( + T2 179 )( + T1 100 ) ) )
(or ( <= ( + T1 231 )  ( + T2 179 ) ) ( <= ( + T2 194 )( + T1 191 ) ) )
(or ( <= ( + T1 308 )  ( + T2 194 ) ) ( <= ( + T2 280 )( + T1 231 ) ) )
(or ( <= ( + T1 334 )  ( + T2 280 ) ) ( <= ( + T2 349 )( + T1 308 ) ) )
(or ( <= ( + T1 345 )  ( + T2 349 ) ) ( <= ( + T2 423 )( + T1 334 ) ) )
(or ( <= ( + T1 439 )  ( + T2 423 ) ) ( <= ( + T2 503 )( + T1 345 ) ) )
(or ( <= ( + T1 504 )  ( + T2 503 ) ) ( <= ( + T2 571 )( + T1 439 ) ) )
(or ( <= ( + T1 61 ) T3 ) ( <= ( + T3 90 ) T1 ) )
(or ( <= ( + T1 85 )  ( + T3 90 ) ) ( <= ( + T3 123 )( + T1 61 ) ) )
(or ( <= ( + T1 100 )  ( + T3 123 ) ) ( <= ( + T3 216 )( + T1 85 ) ) )
(or ( <= ( + T1 191 )  ( + T3 216 ) ) ( <= ( + T3 274 )( + T1 100 ) ) )
(or ( <= ( + T1 231 )  ( + T3 274 ) ) ( <= ( + T3 329 )( + T1 191 ) ) )
(or ( <= ( + T1 308 )  ( + T3 329 ) ) ( <= ( + T3 398 )( + T1 231 ) ) )
(or ( <= ( + T1 334 )  ( + T3 398 ) ) ( <= ( + T3 403 )( + T1 308 ) ) )
(or ( <= ( + T1 345 )  ( + T3 403 ) ) ( <= ( + T3 486 )( + T1 334 ) ) )
(or ( <= ( + T1 439 )  ( + T3 486 ) ) ( <= ( + T3 517 )( + T1 345 ) ) )
(or ( <= ( + T1 504 )  ( + T3 517 ) ) ( <= ( + T3 551 )( + T1 439 ) ) )
(or ( <= ( + T1 61 ) T4 ) ( <= ( + T4 23 ) T1 ) )
(or ( <= ( + T1 85 )  ( + T4 23 ) ) ( <= ( + T4 114 )( + T1 61 ) ) )
(or ( <= ( + T1 100 )  ( + T4 114 ) ) ( <= ( + T4 172 )( + T1 85 ) ) )
(or ( <= ( + T1 191 )  ( + T4 172 ) ) ( <= ( + T4 262 )( + T1 100 ) ) )
(or ( <= ( + T1 231 )  ( + T4 262 ) ) ( <= ( + T4 295 )( + T1 191 ) ) )
(or ( <= ( + T1 308 )  ( + T4 295 ) ) ( <= ( + T4 344 )( + T1 231 ) ) )
(or ( <= ( + T1 334 )  ( + T4 344 ) ) ( <= ( + T4 410 )( + T1 308 ) ) )
(or ( <= ( + T1 345 )  ( + T4 410 ) ) ( <= ( + T4 468 )( + T1 334 ) ) )
(or ( <= ( + T1 439 )  ( + T4 468 ) ) ( <= ( + T4 527 )( + T1 345 ) ) )
(or ( <= ( + T1 504 )  ( + T4 527 ) ) ( <= ( + T4 539 )( + T1 439 ) ) )
(or ( <= ( + T1 61 ) T5 ) ( <= ( + T5 23 ) T1 ) )
(or ( <= ( + T1 85 )  ( + T5 23 ) ) ( <= ( + T5 60 )( + T1 61 ) ) )
(or ( <= ( + T1 100 )  ( + T5 60 ) ) ( <= ( + T5 92 )( + T1 85 ) ) )
(or ( <= ( + T1 191 )  ( + T5 92 ) ) ( <= ( + T5 108 )( + T1 100 ) ) )
(or ( <= ( + T1 231 )  ( + T5 108 ) ) ( <= ( + T5 133 )( + T1 191 ) ) )
(or ( <= ( + T1 308 )  ( + T5 133 ) ) ( <= ( + T5 180 )( + T1 231 ) ) )
(or ( <= ( + T1 334 )  ( + T5 180 ) ) ( <= ( + T5 182 )( + T1 308 ) ) )
(or ( <= ( + T1 345 )  ( + T5 182 ) ) ( <= ( + T5 228 )( + T1 334 ) ) )
(or ( <= ( + T1 439 )  ( + T5 228 ) ) ( <= ( + T5 300 )( + T1 345 ) ) )
(or ( <= ( + T1 504 )  ( + T5 300 ) ) ( <= ( + T5 381 )( + T1 439 ) ) )
(or ( <= ( + T1 61 ) T6 ) ( <= ( + T6 13 ) T1 ) )
(or ( <= ( + T1 85 )  ( + T6 13 ) ) ( <= ( + T6 74 )( + T1 61 ) ) )
(or ( <= ( + T1 100 )  ( + T6 74 ) ) ( <= ( + T6 139 )( + T1 85 ) ) )
(or ( <= ( + T1 191 )  ( + T6 139 ) ) ( <= ( + T6 144 )( + T1 100 ) ) )
(or ( <= ( + T1 231 )  ( + T6 144 ) ) ( <= ( + T6 163 )( + T1 191 ) ) )
(or ( <= ( + T1 308 )  ( + T6 163 ) ) ( <= ( + T6 182 )( + T1 231 ) ) )
(or ( <= ( + T1 334 )  ( + T6 182 ) ) ( <= ( + T6 207 )( + T1 308 ) ) )
(or ( <= ( + T1 345 )  ( + T6 207 ) ) ( <= ( + T6 282 )( + T1 334 ) ) )
(or ( <= ( + T1 439 )  ( + T6 282 ) ) ( <= ( + T6 284 )( + T1 345 ) ) )
(or ( <= ( + T1 504 )  ( + T6 284 ) ) ( <= ( + T6 339 )( + T1 439 ) ) )
(or ( <= ( + T1 61 ) T7 ) ( <= ( + T7 9 ) T1 ) )
(or ( <= ( + T1 85 )  ( + T7 9 ) ) ( <= ( + T7 85 )( + T1 61 ) ) )
(or ( <= ( + T1 100 )  ( + T7 85 ) ) ( <= ( + T7 182 )( + T1 85 ) ) )
(or ( <= ( + T1 191 )  ( + T7 182 ) ) ( <= ( + T7 248 )( + T1 100 ) ) )
(or ( <= ( + T1 231 )  ( + T7 248 ) ) ( <= ( + T7 313 )( + T1 191 ) ) )
(or ( <= ( + T1 308 )  ( + T7 313 ) ) ( <= ( + T7 343 )( + T1 231 ) ) )
(or ( <= ( + T1 334 )  ( + T7 343 ) ) ( <= ( + T7 357 )( + T1 308 ) ) )
(or ( <= ( + T1 345 )  ( + T7 357 ) ) ( <= ( + T7 440 )( + T1 334 ) ) )
(or ( <= ( + T1 439 )  ( + T7 440 ) ) ( <= ( + T7 527 )( + T1 345 ) ) )
(or ( <= ( + T1 504 )  ( + T7 527 ) ) ( <= ( + T7 599 )( + T1 439 ) ) )
(or ( <= ( + T1 61 ) T8 ) ( <= ( + T8 94 ) T1 ) )
(or ( <= ( + T1 85 )  ( + T8 94 ) ) ( <= ( + T8 155 )( + T1 61 ) ) )
(or ( <= ( + T1 100 )  ( + T8 155 ) ) ( <= ( + T8 163 )( + T1 85 ) ) )
(or ( <= ( + T1 191 )  ( + T8 163 ) ) ( <= ( + T8 188 )( + T1 100 ) ) )
(or ( <= ( + T1 231 )  ( + T8 188 ) ) ( <= ( + T8 265 )( + T1 191 ) ) )
(or ( <= ( + T1 308 )  ( + T8 265 ) ) ( <= ( + T8 350 )( + T1 231 ) ) )
(or ( <= ( + T1 334 )  ( + T8 350 ) ) ( <= ( + T8 373 )( + T1 308 ) ) )
(or ( <= ( + T1 345 )  ( + T8 373 ) ) ( <= ( + T8 451 )( + T1 334 ) ) )
(or ( <= ( + T1 439 )  ( + T8 451 ) ) ( <= ( + T8 533 )( + T1 345 ) ) )
(or ( <= ( + T1 504 )  ( + T8 533 ) ) ( <= ( + T8 580 )( + T1 439 ) ) )
(or ( <= ( + T2 27 ) T3 ) ( <= ( + T3 90 ) T2 ) )
(or ( <= ( + T2 48 )  ( + T3 90 ) ) ( <= ( + T3 123 )( + T2 27 ) ) )
(or ( <= ( + T2 90 )  ( + T3 123 ) ) ( <= ( + T3 216 )( + T2 48 ) ) )
(or ( <= ( + T2 179 )  ( + T3 216 ) ) ( <= ( + T3 274 )( + T2 90 ) ) )
(or ( <= ( + T2 194 )  ( + T3 274 ) ) ( <= ( + T3 329 )( + T2 179 ) ) )
(or ( <= ( + T2 280 )  ( + T3 329 ) ) ( <= ( + T3 398 )( + T2 194 ) ) )
(or ( <= ( + T2 349 )  ( + T3 398 ) ) ( <= ( + T3 403 )( + T2 280 ) ) )
(or ( <= ( + T2 423 )  ( + T3 403 ) ) ( <= ( + T3 486 )( + T2 349 ) ) )
(or ( <= ( + T2 503 )  ( + T3 486 ) ) ( <= ( + T3 517 )( + T2 423 ) ) )
(or ( <= ( + T2 571 )  ( + T3 517 ) ) ( <= ( + T3 551 )( + T2 503 ) ) )
(or ( <= ( + T2 27 ) T4 ) ( <= ( + T4 23 ) T2 ) )
(or ( <= ( + T2 48 )  ( + T4 23 ) ) ( <= ( + T4 114 )( + T2 27 ) ) )
(or ( <= ( + T2 90 )  ( + T4 114 ) ) ( <= ( + T4 172 )( + T2 48 ) ) )
(or ( <= ( + T2 179 )  ( + T4 172 ) ) ( <= ( + T4 262 )( + T2 90 ) ) )
(or ( <= ( + T2 194 )  ( + T4 262 ) ) ( <= ( + T4 295 )( + T2 179 ) ) )
(or ( <= ( + T2 280 )  ( + T4 295 ) ) ( <= ( + T4 344 )( + T2 194 ) ) )
(or ( <= ( + T2 349 )  ( + T4 344 ) ) ( <= ( + T4 410 )( + T2 280 ) ) )
(or ( <= ( + T2 423 )  ( + T4 410 ) ) ( <= ( + T4 468 )( + T2 349 ) ) )
(or ( <= ( + T2 503 )  ( + T4 468 ) ) ( <= ( + T4 527 )( + T2 423 ) ) )
(or ( <= ( + T2 571 )  ( + T4 527 ) ) ( <= ( + T4 539 )( + T2 503 ) ) )
(or ( <= ( + T2 27 ) T5 ) ( <= ( + T5 23 ) T2 ) )
(or ( <= ( + T2 48 )  ( + T5 23 ) ) ( <= ( + T5 60 )( + T2 27 ) ) )
(or ( <= ( + T2 90 )  ( + T5 60 ) ) ( <= ( + T5 92 )( + T2 48 ) ) )
(or ( <= ( + T2 179 )  ( + T5 92 ) ) ( <= ( + T5 108 )( + T2 90 ) ) )
(or ( <= ( + T2 194 )  ( + T5 108 ) ) ( <= ( + T5 133 )( + T2 179 ) ) )
(or ( <= ( + T2 280 )  ( + T5 133 ) ) ( <= ( + T5 180 )( + T2 194 ) ) )
(or ( <= ( + T2 349 )  ( + T5 180 ) ) ( <= ( + T5 182 )( + T2 280 ) ) )
(or ( <= ( + T2 423 )  ( + T5 182 ) ) ( <= ( + T5 228 )( + T2 349 ) ) )
(or ( <= ( + T2 503 )  ( + T5 228 ) ) ( <= ( + T5 300 )( + T2 423 ) ) )
(or ( <= ( + T2 571 )  ( + T5 300 ) ) ( <= ( + T5 381 )( + T2 503 ) ) )
(or ( <= ( + T2 27 ) T6 ) ( <= ( + T6 13 ) T2 ) )
(or ( <= ( + T2 48 )  ( + T6 13 ) ) ( <= ( + T6 74 )( + T2 27 ) ) )
(or ( <= ( + T2 90 )  ( + T6 74 ) ) ( <= ( + T6 139 )( + T2 48 ) ) )
(or ( <= ( + T2 179 )  ( + T6 139 ) ) ( <= ( + T6 144 )( + T2 90 ) ) )
(or ( <= ( + T2 194 )  ( + T6 144 ) ) ( <= ( + T6 163 )( + T2 179 ) ) )
(or ( <= ( + T2 280 )  ( + T6 163 ) ) ( <= ( + T6 182 )( + T2 194 ) ) )
(or ( <= ( + T2 349 )  ( + T6 182 ) ) ( <= ( + T6 207 )( + T2 280 ) ) )
(or ( <= ( + T2 423 )  ( + T6 207 ) ) ( <= ( + T6 282 )( + T2 349 ) ) )
(or ( <= ( + T2 503 )  ( + T6 282 ) ) ( <= ( + T6 284 )( + T2 423 ) ) )
(or ( <= ( + T2 571 )  ( + T6 284 ) ) ( <= ( + T6 339 )( + T2 503 ) ) )
(or ( <= ( + T2 27 ) T7 ) ( <= ( + T7 9 ) T2 ) )
(or ( <= ( + T2 48 )  ( + T7 9 ) ) ( <= ( + T7 85 )( + T2 27 ) ) )
(or ( <= ( + T2 90 )  ( + T7 85 ) ) ( <= ( + T7 182 )( + T2 48 ) ) )
(or ( <= ( + T2 179 )  ( + T7 182 ) ) ( <= ( + T7 248 )( + T2 90 ) ) )
(or ( <= ( + T2 194 )  ( + T7 248 ) ) ( <= ( + T7 313 )( + T2 179 ) ) )
(or ( <= ( + T2 280 )  ( + T7 313 ) ) ( <= ( + T7 343 )( + T2 194 ) ) )
(or ( <= ( + T2 349 )  ( + T7 343 ) ) ( <= ( + T7 357 )( + T2 280 ) ) )
(or ( <= ( + T2 423 )  ( + T7 357 ) ) ( <= ( + T7 440 )( + T2 349 ) ) )
(or ( <= ( + T2 503 )  ( + T7 440 ) ) ( <= ( + T7 527 )( + T2 423 ) ) )
(or ( <= ( + T2 571 )  ( + T7 527 ) ) ( <= ( + T7 599 )( + T2 503 ) ) )
(or ( <= ( + T2 27 ) T8 ) ( <= ( + T8 94 ) T2 ) )
(or ( <= ( + T2 48 )  ( + T8 94 ) ) ( <= ( + T8 155 )( + T2 27 ) ) )
(or ( <= ( + T2 90 )  ( + T8 155 ) ) ( <= ( + T8 163 )( + T2 48 ) ) )
(or ( <= ( + T2 179 )  ( + T8 163 ) ) ( <= ( + T8 188 )( + T2 90 ) ) )
(or ( <= ( + T2 194 )  ( + T8 188 ) ) ( <= ( + T8 265 )( + T2 179 ) ) )
(or ( <= ( + T2 280 )  ( + T8 265 ) ) ( <= ( + T8 350 )( + T2 194 ) ) )
(or ( <= ( + T2 349 )  ( + T8 350 ) ) ( <= ( + T8 373 )( + T2 280 ) ) )
(or ( <= ( + T2 423 )  ( + T8 373 ) ) ( <= ( + T8 451 )( + T2 349 ) ) )
(or ( <= ( + T2 503 )  ( + T8 451 ) ) ( <= ( + T8 533 )( + T2 423 ) ) )
(or ( <= ( + T2 571 )  ( + T8 533 ) ) ( <= ( + T8 580 )( + T2 503 ) ) )
(or ( <= ( + T3 90 ) T4 ) ( <= ( + T4 23 ) T3 ) )
(or ( <= ( + T3 123 )  ( + T4 23 ) ) ( <= ( + T4 114 )( + T3 90 ) ) )
(or ( <= ( + T3 216 )  ( + T4 114 ) ) ( <= ( + T4 172 )( + T3 123 ) ) )
(or ( <= ( + T3 274 )  ( + T4 172 ) ) ( <= ( + T4 262 )( + T3 216 ) ) )
(or ( <= ( + T3 329 )  ( + T4 262 ) ) ( <= ( + T4 295 )( + T3 274 ) ) )
(or ( <= ( + T3 398 )  ( + T4 295 ) ) ( <= ( + T4 344 )( + T3 329 ) ) )
(or ( <= ( + T3 403 )  ( + T4 344 ) ) ( <= ( + T4 410 )( + T3 398 ) ) )
(or ( <= ( + T3 486 )  ( + T4 410 ) ) ( <= ( + T4 468 )( + T3 403 ) ) )
(or ( <= ( + T3 517 )  ( + T4 468 ) ) ( <= ( + T4 527 )( + T3 486 ) ) )
(or ( <= ( + T3 551 )  ( + T4 527 ) ) ( <= ( + T4 539 )( + T3 517 ) ) )
(or ( <= ( + T3 90 ) T5 ) ( <= ( + T5 23 ) T3 ) )
(or ( <= ( + T3 123 )  ( + T5 23 ) ) ( <= ( + T5 60 )( + T3 90 ) ) )
(or ( <= ( + T3 216 )  ( + T5 60 ) ) ( <= ( + T5 92 )( + T3 123 ) ) )
(or ( <= ( + T3 274 )  ( + T5 92 ) ) ( <= ( + T5 108 )( + T3 216 ) ) )
(or ( <= ( + T3 329 )  ( + T5 108 ) ) ( <= ( + T5 133 )( + T3 274 ) ) )
(or ( <= ( + T3 398 )  ( + T5 133 ) ) ( <= ( + T5 180 )( + T3 329 ) ) )
(or ( <= ( + T3 403 )  ( + T5 180 ) ) ( <= ( + T5 182 )( + T3 398 ) ) )
(or ( <= ( + T3 486 )  ( + T5 182 ) ) ( <= ( + T5 228 )( + T3 403 ) ) )
(or ( <= ( + T3 517 )  ( + T5 228 ) ) ( <= ( + T5 300 )( + T3 486 ) ) )
(or ( <= ( + T3 551 )  ( + T5 300 ) ) ( <= ( + T5 381 )( + T3 517 ) ) )
(or ( <= ( + T3 90 ) T6 ) ( <= ( + T6 13 ) T3 ) )
(or ( <= ( + T3 123 )  ( + T6 13 ) ) ( <= ( + T6 74 )( + T3 90 ) ) )
(or ( <= ( + T3 216 )  ( + T6 74 ) ) ( <= ( + T6 139 )( + T3 123 ) ) )
(or ( <= ( + T3 274 )  ( + T6 139 ) ) ( <= ( + T6 144 )( + T3 216 ) ) )
(or ( <= ( + T3 329 )  ( + T6 144 ) ) ( <= ( + T6 163 )( + T3 274 ) ) )
(or ( <= ( + T3 398 )  ( + T6 163 ) ) ( <= ( + T6 182 )( + T3 329 ) ) )
(or ( <= ( + T3 403 )  ( + T6 182 ) ) ( <= ( + T6 207 )( + T3 398 ) ) )
(or ( <= ( + T3 486 )  ( + T6 207 ) ) ( <= ( + T6 282 )( + T3 403 ) ) )
(or ( <= ( + T3 517 )  ( + T6 282 ) ) ( <= ( + T6 284 )( + T3 486 ) ) )
(or ( <= ( + T3 551 )  ( + T6 284 ) ) ( <= ( + T6 339 )( + T3 517 ) ) )
(or ( <= ( + T3 90 ) T7 ) ( <= ( + T7 9 ) T3 ) )
(or ( <= ( + T3 123 )  ( + T7 9 ) ) ( <= ( + T7 85 )( + T3 90 ) ) )
(or ( <= ( + T3 216 )  ( + T7 85 ) ) ( <= ( + T7 182 )( + T3 123 ) ) )
(or ( <= ( + T3 274 )  ( + T7 182 ) ) ( <= ( + T7 248 )( + T3 216 ) ) )
(or ( <= ( + T3 329 )  ( + T7 248 ) ) ( <= ( + T7 313 )( + T3 274 ) ) )
(or ( <= ( + T3 398 )  ( + T7 313 ) ) ( <= ( + T7 343 )( + T3 329 ) ) )
(or ( <= ( + T3 403 )  ( + T7 343 ) ) ( <= ( + T7 357 )( + T3 398 ) ) )
(or ( <= ( + T3 486 )  ( + T7 357 ) ) ( <= ( + T7 440 )( + T3 403 ) ) )
(or ( <= ( + T3 517 )  ( + T7 440 ) ) ( <= ( + T7 527 )( + T3 486 ) ) )
(or ( <= ( + T3 551 )  ( + T7 527 ) ) ( <= ( + T7 599 )( + T3 517 ) ) )
(or ( <= ( + T3 90 ) T8 ) ( <= ( + T8 94 ) T3 ) )
(or ( <= ( + T3 123 )  ( + T8 94 ) ) ( <= ( + T8 155 )( + T3 90 ) ) )
(or ( <= ( + T3 216 )  ( + T8 155 ) ) ( <= ( + T8 163 )( + T3 123 ) ) )
(or ( <= ( + T3 274 )  ( + T8 163 ) ) ( <= ( + T8 188 )( + T3 216 ) ) )
(or ( <= ( + T3 329 )  ( + T8 188 ) ) ( <= ( + T8 265 )( + T3 274 ) ) )
(or ( <= ( + T3 398 )  ( + T8 265 ) ) ( <= ( + T8 350 )( + T3 329 ) ) )
(or ( <= ( + T3 403 )  ( + T8 350 ) ) ( <= ( + T8 373 )( + T3 398 ) ) )
(or ( <= ( + T3 486 )  ( + T8 373 ) ) ( <= ( + T8 451 )( + T3 403 ) ) )
(or ( <= ( + T3 517 )  ( + T8 451 ) ) ( <= ( + T8 533 )( + T3 486 ) ) )
(or ( <= ( + T3 551 )  ( + T8 533 ) ) ( <= ( + T8 580 )( + T3 517 ) ) )
(or ( <= ( + T4 23 ) T5 ) ( <= ( + T5 23 ) T4 ) )
(or ( <= ( + T4 114 )  ( + T5 23 ) ) ( <= ( + T5 60 )( + T4 23 ) ) )
(or ( <= ( + T4 172 )  ( + T5 60 ) ) ( <= ( + T5 92 )( + T4 114 ) ) )
(or ( <= ( + T4 262 )  ( + T5 92 ) ) ( <= ( + T5 108 )( + T4 172 ) ) )
(or ( <= ( + T4 295 )  ( + T5 108 ) ) ( <= ( + T5 133 )( + T4 262 ) ) )
(or ( <= ( + T4 344 )  ( + T5 133 ) ) ( <= ( + T5 180 )( + T4 295 ) ) )
(or ( <= ( + T4 410 )  ( + T5 180 ) ) ( <= ( + T5 182 )( + T4 344 ) ) )
(or ( <= ( + T4 468 )  ( + T5 182 ) ) ( <= ( + T5 228 )( + T4 410 ) ) )
(or ( <= ( + T4 527 )  ( + T5 228 ) ) ( <= ( + T5 300 )( + T4 468 ) ) )
(or ( <= ( + T4 539 )  ( + T5 300 ) ) ( <= ( + T5 381 )( + T4 527 ) ) )
(or ( <= ( + T4 23 ) T6 ) ( <= ( + T6 13 ) T4 ) )
(or ( <= ( + T4 114 )  ( + T6 13 ) ) ( <= ( + T6 74 )( + T4 23 ) ) )
(or ( <= ( + T4 172 )  ( + T6 74 ) ) ( <= ( + T6 139 )( + T4 114 ) ) )
(or ( <= ( + T4 262 )  ( + T6 139 ) ) ( <= ( + T6 144 )( + T4 172 ) ) )
(or ( <= ( + T4 295 )  ( + T6 144 ) ) ( <= ( + T6 163 )( + T4 262 ) ) )
(or ( <= ( + T4 344 )  ( + T6 163 ) ) ( <= ( + T6 182 )( + T4 295 ) ) )
(or ( <= ( + T4 410 )  ( + T6 182 ) ) ( <= ( + T6 207 )( + T4 344 ) ) )
(or ( <= ( + T4 468 )  ( + T6 207 ) ) ( <= ( + T6 282 )( + T4 410 ) ) )
(or ( <= ( + T4 527 )  ( + T6 282 ) ) ( <= ( + T6 284 )( + T4 468 ) ) )
(or ( <= ( + T4 539 )  ( + T6 284 ) ) ( <= ( + T6 339 )( + T4 527 ) ) )
(or ( <= ( + T4 23 ) T7 ) ( <= ( + T7 9 ) T4 ) )
(or ( <= ( + T4 114 )  ( + T7 9 ) ) ( <= ( + T7 85 )( + T4 23 ) ) )
(or ( <= ( + T4 172 )  ( + T7 85 ) ) ( <= ( + T7 182 )( + T4 114 ) ) )
(or ( <= ( + T4 262 )  ( + T7 182 ) ) ( <= ( + T7 248 )( + T4 172 ) ) )
(or ( <= ( + T4 295 )  ( + T7 248 ) ) ( <= ( + T7 313 )( + T4 262 ) ) )
(or ( <= ( + T4 344 )  ( + T7 313 ) ) ( <= ( + T7 343 )( + T4 295 ) ) )
(or ( <= ( + T4 410 )  ( + T7 343 ) ) ( <= ( + T7 357 )( + T4 344 ) ) )
(or ( <= ( + T4 468 )  ( + T7 357 ) ) ( <= ( + T7 440 )( + T4 410 ) ) )
(or ( <= ( + T4 527 )  ( + T7 440 ) ) ( <= ( + T7 527 )( + T4 468 ) ) )
(or ( <= ( + T4 539 )  ( + T7 527 ) ) ( <= ( + T7 599 )( + T4 527 ) ) )
(or ( <= ( + T4 23 ) T8 ) ( <= ( + T8 94 ) T4 ) )
(or ( <= ( + T4 114 )  ( + T8 94 ) ) ( <= ( + T8 155 )( + T4 23 ) ) )
(or ( <= ( + T4 172 )  ( + T8 155 ) ) ( <= ( + T8 163 )( + T4 114 ) ) )
(or ( <= ( + T4 262 )  ( + T8 163 ) ) ( <= ( + T8 188 )( + T4 172 ) ) )
(or ( <= ( + T4 295 )  ( + T8 188 ) ) ( <= ( + T8 265 )( + T4 262 ) ) )
(or ( <= ( + T4 344 )  ( + T8 265 ) ) ( <= ( + T8 350 )( + T4 295 ) ) )
(or ( <= ( + T4 410 )  ( + T8 350 ) ) ( <= ( + T8 373 )( + T4 344 ) ) )
(or ( <= ( + T4 468 )  ( + T8 373 ) ) ( <= ( + T8 451 )( + T4 410 ) ) )
(or ( <= ( + T4 527 )  ( + T8 451 ) ) ( <= ( + T8 533 )( + T4 468 ) ) )
(or ( <= ( + T4 539 )  ( + T8 533 ) ) ( <= ( + T8 580 )( + T4 527 ) ) )
(or ( <= ( + T5 23 ) T6 ) ( <= ( + T6 13 ) T5 ) )
(or ( <= ( + T5 60 )  ( + T6 13 ) ) ( <= ( + T6 74 )( + T5 23 ) ) )
(or ( <= ( + T5 92 )  ( + T6 74 ) ) ( <= ( + T6 139 )( + T5 60 ) ) )
(or ( <= ( + T5 108 )  ( + T6 139 ) ) ( <= ( + T6 144 )( + T5 92 ) ) )
(or ( <= ( + T5 133 )  ( + T6 144 ) ) ( <= ( + T6 163 )( + T5 108 ) ) )
(or ( <= ( + T5 180 )  ( + T6 163 ) ) ( <= ( + T6 182 )( + T5 133 ) ) )
(or ( <= ( + T5 182 )  ( + T6 182 ) ) ( <= ( + T6 207 )( + T5 180 ) ) )
(or ( <= ( + T5 228 )  ( + T6 207 ) ) ( <= ( + T6 282 )( + T5 182 ) ) )
(or ( <= ( + T5 300 )  ( + T6 282 ) ) ( <= ( + T6 284 )( + T5 228 ) ) )
(or ( <= ( + T5 381 )  ( + T6 284 ) ) ( <= ( + T6 339 )( + T5 300 ) ) )
(or ( <= ( + T5 23 ) T7 ) ( <= ( + T7 9 ) T5 ) )
(or ( <= ( + T5 60 )  ( + T7 9 ) ) ( <= ( + T7 85 )( + T5 23 ) ) )
(or ( <= ( + T5 92 )  ( + T7 85 ) ) ( <= ( + T7 182 )( + T5 60 ) ) )
(or ( <= ( + T5 108 )  ( + T7 182 ) ) ( <= ( + T7 248 )( + T5 92 ) ) )
(or ( <= ( + T5 133 )  ( + T7 248 ) ) ( <= ( + T7 313 )( + T5 108 ) ) )
(or ( <= ( + T5 180 )  ( + T7 313 ) ) ( <= ( + T7 343 )( + T5 133 ) ) )
(or ( <= ( + T5 182 )  ( + T7 343 ) ) ( <= ( + T7 357 )( + T5 180 ) ) )
(or ( <= ( + T5 228 )  ( + T7 357 ) ) ( <= ( + T7 440 )( + T5 182 ) ) )
(or ( <= ( + T5 300 )  ( + T7 440 ) ) ( <= ( + T7 527 )( + T5 228 ) ) )
(or ( <= ( + T5 381 )  ( + T7 527 ) ) ( <= ( + T7 599 )( + T5 300 ) ) )
(or ( <= ( + T5 23 ) T8 ) ( <= ( + T8 94 ) T5 ) )
(or ( <= ( + T5 60 )  ( + T8 94 ) ) ( <= ( + T8 155 )( + T5 23 ) ) )
(or ( <= ( + T5 92 )  ( + T8 155 ) ) ( <= ( + T8 163 )( + T5 60 ) ) )
(or ( <= ( + T5 108 )  ( + T8 163 ) ) ( <= ( + T8 188 )( + T5 92 ) ) )
(or ( <= ( + T5 133 )  ( + T8 188 ) ) ( <= ( + T8 265 )( + T5 108 ) ) )
(or ( <= ( + T5 180 )  ( + T8 265 ) ) ( <= ( + T8 350 )( + T5 133 ) ) )
(or ( <= ( + T5 182 )  ( + T8 350 ) ) ( <= ( + T8 373 )( + T5 180 ) ) )
(or ( <= ( + T5 228 )  ( + T8 373 ) ) ( <= ( + T8 451 )( + T5 182 ) ) )
(or ( <= ( + T5 300 )  ( + T8 451 ) ) ( <= ( + T8 533 )( + T5 228 ) ) )
(or ( <= ( + T5 381 )  ( + T8 533 ) ) ( <= ( + T8 580 )( + T5 300 ) ) )
(or ( <= ( + T6 13 ) T7 ) ( <= ( + T7 9 ) T6 ) )
(or ( <= ( + T6 74 )  ( + T7 9 ) ) ( <= ( + T7 85 )( + T6 13 ) ) )
(or ( <= ( + T6 139 )  ( + T7 85 ) ) ( <= ( + T7 182 )( + T6 74 ) ) )
(or ( <= ( + T6 144 )  ( + T7 182 ) ) ( <= ( + T7 248 )( + T6 139 ) ) )
(or ( <= ( + T6 163 )  ( + T7 248 ) ) ( <= ( + T7 313 )( + T6 144 ) ) )
(or ( <= ( + T6 182 )  ( + T7 313 ) ) ( <= ( + T7 343 )( + T6 163 ) ) )
(or ( <= ( + T6 207 )  ( + T7 343 ) ) ( <= ( + T7 357 )( + T6 182 ) ) )
(or ( <= ( + T6 282 )  ( + T7 357 ) ) ( <= ( + T7 440 )( + T6 207 ) ) )
(or ( <= ( + T6 284 )  ( + T7 440 ) ) ( <= ( + T7 527 )( + T6 282 ) ) )
(or ( <= ( + T6 339 )  ( + T7 527 ) ) ( <= ( + T7 599 )( + T6 284 ) ) )
(or ( <= ( + T6 13 ) T8 ) ( <= ( + T8 94 ) T6 ) )
(or ( <= ( + T6 74 )  ( + T8 94 ) ) ( <= ( + T8 155 )( + T6 13 ) ) )
(or ( <= ( + T6 139 )  ( + T8 155 ) ) ( <= ( + T8 163 )( + T6 74 ) ) )
(or ( <= ( + T6 144 )  ( + T8 163 ) ) ( <= ( + T8 188 )( + T6 139 ) ) )
(or ( <= ( + T6 163 )  ( + T8 188 ) ) ( <= ( + T8 265 )( + T6 144 ) ) )
(or ( <= ( + T6 182 )  ( + T8 265 ) ) ( <= ( + T8 350 )( + T6 163 ) ) )
(or ( <= ( + T6 207 )  ( + T8 350 ) ) ( <= ( + T8 373 )( + T6 182 ) ) )
(or ( <= ( + T6 282 )  ( + T8 373 ) ) ( <= ( + T8 451 )( + T6 207 ) ) )
(or ( <= ( + T6 284 )  ( + T8 451 ) ) ( <= ( + T8 533 )( + T6 282 ) ) )
(or ( <= ( + T6 339 )  ( + T8 533 ) ) ( <= ( + T8 580 )( + T6 284 ) ) )
(or ( <= ( + T7 9 ) T8 ) ( <= ( + T8 94 ) T7 ) )
(or ( <= ( + T7 85 )  ( + T8 94 ) ) ( <= ( + T8 155 )( + T7 9 ) ) )
(or ( <= ( + T7 182 )  ( + T8 155 ) ) ( <= ( + T8 163 )( + T7 85 ) ) )
(or ( <= ( + T7 248 )  ( + T8 163 ) ) ( <= ( + T8 188 )( + T7 182 ) ) )
(or ( <= ( + T7 313 )  ( + T8 188 ) ) ( <= ( + T8 265 )( + T7 248 ) ) )
(or ( <= ( + T7 343 )  ( + T8 265 ) ) ( <= ( + T8 350 )( + T7 313 ) ) )
(or ( <= ( + T7 357 )  ( + T8 350 ) ) ( <= ( + T8 373 )( + T7 343 ) ) )
(or ( <= ( + T7 440 )  ( + T8 373 ) ) ( <= ( + T8 451 )( + T7 357 ) ) )
(or ( <= ( + T7 527 )  ( + T8 451 ) ) ( <= ( + T8 533 )( + T7 440 ) ) )
(or ( <= ( + T7 599 )  ( + T8 533 ) ) ( <= ( + T8 580 )( + T7 527 ) ) )
( <= ( + T1 504 ) Z)
( <= ( + T2 571 ) Z)
( <= ( + T3 551 ) Z)
( <= ( + T4 539 ) Z)
( <= ( + T5 381 ) Z)
( <= ( + T6 339 ) Z)
( <= ( + T7 599 ) Z)
( <= ( + T8 580 ) Z)
( >= T1 0 )
( >= T2 0 )
( >= T3 0 )
( >= T4 0 )
( >= T5 0 )
( >= T6 0 )
( >= T7 0 )
( >= T8 0 )
) )
)(=> $phi $goal))))